c Result of efficient AIG-to-CNF conversion using package CNF
p cnf 203 632
2 -150 -152 -160 0
-2 150 0
-2 152 0
-2 160 0
3 -150 -151 -161 0
-3 150 0
-3 151 0
-3 161 0
4 -150 -151 -152 0
-4 150 0
-4 151 0
-4 152 0
5 -162 -163 0
-5 162 0
-5 163 0
6 -145 -146 -147 -148 0
-6 148 0
-6 145 0
-6 147 0
-6 146 0
7 4 -8 0
-7 -4 0
-7 8 0
8 -145 -147 -148 -149 0
-8 149 0
-8 145 0
-8 148 0
-8 147 0
9 -155 -160 -161 0
-9 155 0
-9 160 0
-9 161 0
10 -151 -155 -161 0
-10 151 0
-10 155 0
-10 161 0
11 -151 -152 -155 0
-11 151 0
-11 152 0
-11 155 0
12 -165 -167 0
12 -164 -167 0
-12 167 0
-12 164 165 0
13 -4 -8 0
-13 4 0
-13 8 0
14 -145 -149 -153 0
-14 145 0
-14 149 0
-14 153 0
15 -150 -156 -16 0
-15 150 0
-15 156 0
-15 16 0
16 -145 -146 -147 -154 0
-16 154 0
-16 145 0
-16 147 0
-16 146 0
17 -155 -156 -159 -16 0
-17 16 0
-17 155 0
-17 159 0
-17 156 0
18 -165 -166 0
18 -164 -166 0
-18 166 0
-18 164 165 0
19 20 -24 0
19 -20 24 0
-19 -20 -24 0
-19 20 24 0
20 176 -21 0
20 -176 21 0
-20 -176 -21 0
-20 176 21 0
21 22 -23 0
21 -22 23 0
-21 -22 -23 0
-21 22 23 0
22 168 -169 0
22 -168 169 0
-22 -168 -169 0
-22 168 169 0
23 170 -171 0
23 -170 171 0
-23 -170 -171 0
-23 170 171 0
24 177 -25 0
24 -177 25 0
-24 -177 -25 0
-24 177 25 0
25 26 -27 0
25 -26 27 0
-25 -26 -27 0
-25 26 27 0
26 172 -173 0
26 -172 173 0
-26 -172 -173 0
-26 172 173 0
27 174 -175 0
27 -174 175 0
-27 -174 -175 0
-27 174 175 0
28 29 -33 0
28 -29 33 0
-28 -29 -33 0
-28 29 33 0
29 176 -30 0
29 -176 30 0
-29 -176 -30 0
-29 176 30 0
30 31 -32 0
30 -31 32 0
-30 -31 -32 0
-30 31 32 0
31 185 -186 0
31 -185 186 0
-31 -185 -186 0
-31 185 186 0
32 187 -188 0
32 -187 188 0
-32 -187 -188 0
-32 187 188 0
33 193 -34 0
33 -193 34 0
-33 -193 -34 0
-33 193 34 0
34 35 -36 0
34 -35 36 0
-34 -35 -36 0
-34 35 36 0
35 189 -190 0
35 -189 190 0
-35 -189 -190 0
-35 189 190 0
36 191 -192 0
36 -191 192 0
-36 -191 -192 0
-36 191 192 0
-37 192 40 51 0
-37 38 40 51 0
37 -51 0
37 -40 0
37 -192 -38 0
38 -157 -158 -16 -39 0
-38 39 0
-38 157 0
-38 16 0
-38 158 0
39 -152 -155 -156 0
-39 152 0
-39 155 0
-39 156 0
-40 203 41 0
-40 198 199 0
-40 199 41 0
-40 198 203 0
40 -199 -203 0
40 -198 -41 0
-41 42 44 47 0
-41 175 42 44 0
41 -44 0
41 -42 0
41 -175 -47 0
42 -154 204 -14 -43 0
-42 43 0
-42 154 0
-42 14 0
-42 -204 0
43 -150 -160 -161 0
-43 150 0
-43 160 0
-43 161 0
44 -183 45 0
-44 183 0
-44 -45 0
45 -145 46 0
45 -145 148 0
-45 145 0
-45 -148 -46 0
46 184 -14 0
46 155 -14 0
-46 14 0
-46 -155 -184 0
-47 14 49 0
-47 48 49 0
-47 184 49 0
47 -49 0
47 -184 -14 -48 0
48 148 -152 -155 0
48 -148 152 -155 0
-48 155 0
-48 148 152 0
-48 -148 -152 0
49 155 -50 0
49 152 -50 0
49 160 -50 0
-49 50 0
-49 -152 -155 -160 0
50 -145 -146 -148 -153 0
-50 153 0
-50 145 0
-50 148 0
-50 146 0
-51 194 52 56 0
-51 174 52 56 0
51 -56 0
51 -52 0
51 -174 -194 0
52 -195 202 -53 0
52 -195 -202 53 0
-52 195 0
-52 -202 -53 0
-52 202 53 0
53 -54 55 0
-53 54 0
-53 -55 0
-54 192 41 0
54 -192 0
54 -41 0
55 -192 -41 0
-55 192 0
-55 41 0
-56 197 -55 0
-56 54 55 0
-56 196 55 0
56 -197 -55 0
56 -196 -54 55 0
-57 38 58 61 0
-57 189 58 61 0
57 -61 0
57 -58 0
57 -189 -38 0
58 -198 -59 0
-58 198 0
-58 59 0
-59 172 42 60 0
-59 42 47 60 0
59 -60 0
59 -42 0
59 -172 -47 0
60 -179 45 0
-60 179 0
-60 -45 0
-61 194 62 76 0
-61 171 62 76 0
61 -76 0
61 -62 0
61 -171 -194 0
62 -195 63 -64 0
62 -195 -63 64 0
-62 195 0
-62 -63 -64 0
-62 63 64 0
63 -189 59 0
63 189 -59 0
-63 189 59 0
-63 -189 -59 0
-64 202 72 0
-64 54 72 0
-64 65 72 0
64 -72 0
64 -202 -54 -65 0
65 -66 -69 0
-65 66 0
-65 69 0
-66 190 67 0
66 -190 0
66 -67 0
-67 173 42 68 0
-67 42 47 68 0
67 -68 0
67 -42 0
67 -173 -47 0
68 -180 45 0
-68 180 0
-68 -45 0
-69 191 70 0
69 -191 0
69 -70 0
-70 174 42 71 0
-70 42 47 71 0
70 -71 0
70 -42 0
70 -174 -47 0
71 -181 45 0
-71 181 0
-71 -45 0
-72 66 73 74 0
-72 73 74 75 0
72 -74 0
72 -73 0
72 -66 -75 0
73 -55 -65 0
-73 55 0
-73 65 0
74 -190 -67 0
-74 190 0
-74 67 0
75 -191 -70 0
-75 191 0
-75 70 0
-76 197 -78 0
-76 77 78 0
-76 196 78 0
76 -197 -78 0
76 -196 -77 78 0
-77 189 59 0
77 -189 0
77 -59 0
78 -189 -59 0
-78 189 0
-78 59 0
-79 190 80 81 0
-79 38 80 81 0
79 -81 0
79 -80 0
79 -190 -38 0
-80 200 67 0
-80 198 199 0
-80 199 67 0
-80 198 200 0
80 -199 -200 0
80 -198 -67 0
-81 194 82 86 0
-81 172 82 86 0
81 -86 0
81 -82 0
81 -172 -194 0
82 -195 83 -84 0
82 -195 -83 84 0
-82 195 0
-82 -83 -84 0
-82 83 84 0
83 -66 74 0
-83 66 0
-83 -74 0
-84 55 75 85 0
-84 69 75 85 0
84 -85 0
84 -75 0
84 -55 -69 0
85 -202 -54 -69 0
-85 202 0
-85 69 0
-85 54 0
-86 197 -74 0
-86 66 74 0
-86 196 74 0
86 -197 -74 0
86 -196 -66 74 0
-87 191 88 89 0
-87 38 88 89 0
87 -89 0
87 -88 0
87 -191 -38 0
-88 201 70 0
-88 198 199 0
-88 199 70 0
-88 198 201 0
88 -199 -201 0
88 -198 -70 0
-89 194 90 93 0
-89 173 90 93 0
89 -93 0
89 -90 0
89 -173 -194 0
90 -195 91 -92 0
90 -195 -91 92 0
-90 195 0
-90 -91 -92 0
-90 91 92 0
91 -69 75 0
-91 69 0
-91 -75 0
-92 54 55 0
-92 202 55 0
92 -55 0
92 -202 -54 0
-93 197 -75 0
-93 69 75 0
-93 196 75 0
93 -197 -75 0
93 -196 -69 75 0
-94 95 100 0
-94 95 117 0
94 -95 0
94 -100 -117 0
95 -185 -96 0
-95 185 0
-95 96 0
-96 179 97 99 0
-96 97 98 99 0
96 -97 0
96 -99 0
96 -179 -98 0
-97 178 47 0
-97 146 168 0
-97 146 47 0
-97 168 178 0
97 -146 -178 0
97 -168 -47 0
98 -154 -46 0
-98 154 0
-98 46 0
99 -148 204 -14 -43 0
-99 43 0
-99 148 0
-99 14 0
-99 -204 0
-100 102 112 0
-100 109 112 0
-100 101 112 0
100 -112 0
100 -101 -102 -109 0
-101 77 78 0
-101 78 64 0
101 -78 0
101 -77 -64 0
102 -103 -106 0
-102 103 0
-102 106 0
-103 186 104 0
103 -186 0
103 -104 0
-104 98 99 105 0
-104 180 99 105 0
104 -105 0
104 -99 0
104 -180 -98 0
-105 178 47 0
-105 153 169 0
-105 153 47 0
-105 169 178 0
105 -153 -178 0
105 -169 -47 0
-106 187 107 0
106 -187 0
106 -107 0
-107 98 99 108 0
-107 181 99 108 0
107 -108 0
107 -99 0
107 -181 -98 0
-108 178 47 0
-108 148 170 0
-108 148 47 0
-108 170 178 0
108 -148 -178 0
108 -170 -47 0
-109 188 110 0
109 -188 0
109 -110 0
-110 98 99 111 0
-110 183 99 111 0
110 -111 0
110 -99 0
110 -183 -98 0
-111 182 47 0
-111 171 178 0
-111 178 47 0
-111 171 182 0
111 -178 -182 0
111 -171 -47 0
-112 103 113 115 0
-112 113 115 116 0
112 -115 0
112 -113 0
112 -103 -116 0
113 -102 -114 0
-113 102 0
-113 114 0
114 -188 -110 0
-114 188 0
-114 110 0
115 -186 -104 0
-115 186 0
-115 104 0
116 -187 -107 0
-116 187 0
-116 107 0
-117 185 96 0
117 -185 0
117 -96 0
-118 38 119 120 0
-118 188 119 120 0
118 -120 0
118 -119 0
118 -188 -38 0
119 -198 -110 0
-119 198 0
-119 110 0
-120 194 121 123 0
-120 170 121 123 0
120 -123 0
120 -121 0
120 -170 -194 0
121 -195 -101 122 0
121 -195 101 -122 0
-121 195 0
-121 101 122 0
-121 -101 -122 0
122 -109 114 0
-122 109 0
-122 -114 0
-123 197 -114 0
-123 109 114 0
-123 196 114 0
123 -197 -114 0
123 -196 -109 114 0
-124 38 125 126 0
-124 185 125 126 0
124 -126 0
124 -125 0
124 -185 -38 0
125 -198 -96 0
-125 198 0
-125 96 0
-126 204 127 129 0
-126 194 127 129 0
126 -129 0
126 -127 0
126 -194 -204 0
127 -195 -100 128 0
127 -195 100 -128 0
-127 195 0
-127 100 128 0
-127 -100 -128 0
128 -185 96 0
128 185 -96 0
-128 185 96 0
-128 -185 -96 0
-129 95 128 0
-129 196 197 0
-129 197 128 0
-129 196 95 0
129 -197 -95 0
129 -196 -128 0
-130 38 131 132 0
-130 186 131 132 0
130 -132 0
130 -131 0
130 -186 -38 0
131 -198 -104 0
-131 198 0
-131 104 0
-132 194 133 137 0
-132 168 133 137 0
132 -137 0
132 -133 0
132 -168 -194 0
133 -195 134 -135 0
133 -195 -134 135 0
-133 195 0
-133 -134 -135 0
-133 134 135 0
134 -103 115 0
-134 103 0
-134 -115 0
-135 106 116 136 0
-135 114 116 136 0
135 -136 0
135 -116 0
135 -106 -114 0
136 -101 -106 -109 0
-136 101 0
-136 109 0
-136 106 0
-137 197 -115 0
-137 103 115 0
-137 196 115 0
137 -197 -115 0
137 -196 -103 115 0
-138 38 139 140 0
-138 187 139 140 0
138 -140 0
138 -139 0
138 -187 -38 0
139 -198 -107 0
-139 198 0
-139 107 0
-140 194 141 144 0
-140 169 141 144 0
140 -144 0
140 -141 0
140 -169 -194 0
141 -195 142 -143 0
141 -195 -142 143 0
-141 195 0
-141 -142 -143 0
-141 142 143 0
142 -106 116 0
-142 106 0
-142 -116 0
-143 101 114 0
-143 109 114 0
143 -114 0
143 -101 -109 0
-144 197 -116 0
-144 106 116 0
-144 196 116 0
144 -197 -116 0
144 -196 -106 116 0
-205 0
2 0
3 0
4 0
5 0
6 0
-7 0
-9 0
-10 0
-11 0
12 0
-13 0
14 0
15 0
17 0
18 0
19 0
28 0
37 0
57 0
79 0
87 0
94 0
118 0
124 0
130 0
138 0

